<?xml version="1.0" encoding="UTF-8"?><osil xmlns="os.optimizationservices.org"   xmlns:xsi="http://www.w3.org/2001/XMLSchema-instance" xsi:schemaLocation="os.optimizationservices.org http://www.optimizationservices.org/schemas/2.0/OSiL.xsd" ><instanceHeader><name>q_20_4_25_3</name></instanceHeader><instanceData><variables numberOfVariables="20"><var name="x1" ub="1"/><var name="x2" ub="1"/><var name="x3" ub="1"/><var name="x4" ub="1"/><var name="x5" ub="1"/><var name="x6" ub="1"/><var name="x7" ub="1"/><var name="x8" ub="1"/><var name="x9" ub="1"/><var name="x10" ub="1"/><var name="x11" ub="1"/><var name="x12" ub="1"/><var name="x13" ub="1"/><var name="x14" ub="1"/><var name="x15" ub="1"/><var name="x16" ub="1"/><var name="x17" ub="1"/><var name="x18" ub="1"/><var name="x19" ub="1"/><var name="x20" ub="1"/></variables><objectives numberOfObjectives="1"><obj maxOrMin="min" name="defObj_x21" numberOfObjCoef="20"><coef idx="0">.8432</coef><coef idx="1">.8133</coef><coef idx="2">.1169</coef><coef idx="3">-.1312</coef><coef idx="4">.9717</coef><coef idx="5">.3126</coef><coef idx="6">.4154</coef><coef idx="7">-1.05e-2</coef><coef idx="8">.4772</coef><coef idx="9">.1875</coef><coef idx="10">.9525</coef><coef idx="11">-.3099</coef><coef idx="12">-.239</coef><coef idx="13">.5059</coef><coef idx="14">.466</coef><coef idx="15">-.334</coef><coef idx="16">.8077</coef><coef idx="17">.3148</coef><coef idx="18">-.4982</coef><coef idx="19">.2499</coef></obj></objectives><constraints numberOfConstraints="4"><con name="e2" ub="11.494"/><con name="e3" ub="15.143"/><con name="e4" ub=".752"/><con name="e5" ub="53.247"/></constraints><linearConstraintCoefficients numberOfValues="80"><start><el mult="5" incr="20">0</el></start><colIdx><el mult="20" incr="1">0</el><el mult="20" incr="1">0</el><el mult="20" incr="1">0</el><el mult="20" incr="1">0</el></colIdx><value><el>.5042</el><el>-.931</el><el>.6521</el><el>-.3237</el><el>.27</el><el>.2362</el><el>.5923</el><el>.986</el><el>-6.44e-2</el><el>.6635</el><el>-.7397</el><el>.942</el><el>-.6956</el><el>.7189</el><el>.2027</el><el>.7485</el><el>.4619</el><el>4.3e-3</el><el>.8381</el><el>-.8394</el><el>-.3957</el><el>-.7523</el><el>-.232</el><el>.7743</el><el>-.4182</el><el>-.8409</el><el>.2953</el><el>-.6522</el><el>.2996</el><el>-.319</el><el>9.2e-2</el><el>-.9485</el><el>.7382</el><el>-.1359</el><el>.3935</el><el>.8373</el><el>.8982</el><el>-.5906</el><el>-.1772</el><el>.834</el><el>.2841</el><el>-.2428</el><el>-.8116</el><el>.8953</el><el>.2995</el><el>-.2316</el><el>-.7342</el><el>.3091</el><el>-.114</el><el>-.6494</el><el>-.5173</el><el>-.7047</el><el>-.764</el><el>-.2591</el><el>-.6065</el><el>-.5798</el><el>.1489</el><el>-.7814</el><el>2.65e-2</el><el>-7.1e-3</el><el>.4677</el><el>-.6577</el><el>.3394</el><el>-.7785</el><el>-.7024</el><el>.2443</el><el>-.2521</el><el>.2286</el><el>-9.91e-2</el><el>-.7218</el><el>.9204</el><el>-.1743</el><el>.2405</el><el>.1433</el><el>.402</el><el>.7113</el><el>-.14</el><el>.1251</el><el>4.73e-2</el><el>-.5929</el></value></linearConstraintCoefficients><quadraticCoefficients  numberOfQuadraticTerms="260" ><qTerm  idx="-1"  idxOne="0"  idxTwo="14"  coef="-.5283"/><qTerm  idx="-1"  idxOne="0"  idxTwo="16"  coef="-.9504"/><qTerm  idx="-1"  idxOne="1"  idxTwo="2"  coef=".7254"/><qTerm  idx="-1"  idxOne="1"  idxTwo="3"  coef=".6694"/><qTerm  idx="-1"  idxOne="1"  idxTwo="6"  coef=".2467"/><qTerm  idx="-1"  idxOne="2"  idxTwo="11"  coef=".3384"/><qTerm  idx="-1"  idxOne="2"  idxTwo="13"  coef="-.7048"/><qTerm  idx="-1"  idxOne="2"  idxTwo="14"  coef=".9626"/><qTerm  idx="-1"  idxOne="2"  idxTwo="16"  coef="1.3073"/><qTerm  idx="-1"  idxOne="3"  idxTwo="4"  coef="-1.2149"/><qTerm  idx="-1"  idxOne="3"  idxTwo="11"  coef="-.5358"/><qTerm  idx="-1"  idxOne="3"  idxTwo="12"  coef="1.9794"/><qTerm  idx="-1"  idxOne="3"  idxTwo="13"  coef="1.5365"/><qTerm  idx="-1"  idxOne="3"  idxTwo="14"  coef="1.0108"/><qTerm  idx="-1"  idxOne="3"  idxTwo="16"  coef="1.3168"/><qTerm  idx="-1"  idxOne="3"  idxTwo="18"  coef="1.7676"/><qTerm  idx="-1"  idxOne="4"  idxTwo="7"  coef="-.226"/><qTerm  idx="-1"  idxOne="4"  idxTwo="8"  coef="1.7205"/><qTerm  idx="-1"  idxOne="4"  idxTwo="9"  coef="-.3986"/><qTerm  idx="-1"  idxOne="4"  idxTwo="10"  coef="1.3806"/><qTerm  idx="-1"  idxOne="5"  idxTwo="12"  coef=".5583"/><qTerm  idx="-1"  idxOne="5"  idxTwo="14"  coef="1.5187"/><qTerm  idx="-1"  idxOne="5"  idxTwo="15"  coef="1.3982"/><qTerm  idx="-1"  idxOne="5"  idxTwo="17"  coef=".3418"/><qTerm  idx="-1"  idxOne="6"  idxTwo="11"  coef="-.8291"/><qTerm  idx="-1"  idxOne="6"  idxTwo="14"  coef=".6688"/><qTerm  idx="-1"  idxOne="6"  idxTwo="15"  coef="-1.0515"/><qTerm  idx="-1"  idxOne="6"  idxTwo="16"  coef="-.7638"/><qTerm  idx="-1"  idxOne="6"  idxTwo="18"  coef=".2969"/><qTerm  idx="-1"  idxOne="6"  idxTwo="19"  coef="-1.9482"/><qTerm  idx="-1"  idxOne="7"  idxTwo="9"  coef="1.6561"/><qTerm  idx="-1"  idxOne="7"  idxTwo="16"  coef="-1.6671"/><qTerm  idx="-1"  idxOne="7"  idxTwo="18"  coef="1.7754"/><qTerm  idx="-1"  idxOne="8"  idxTwo="9"  coef="-1.5988"/><qTerm  idx="-1"  idxOne="8"  idxTwo="14"  coef="-.4995"/><qTerm  idx="-1"  idxOne="8"  idxTwo="16"  coef="1.7033"/><qTerm  idx="-1"  idxOne="8"  idxTwo="17"  coef="1.6061"/><qTerm  idx="-1"  idxOne="9"  idxTwo="14"  coef="1.3851"/><qTerm  idx="-1"  idxOne="10"  idxTwo="11"  coef="-.7874"/><qTerm  idx="-1"  idxOne="11"  idxTwo="13"  coef=".4016"/><qTerm  idx="-1"  idxOne="11"  idxTwo="16"  coef="1.3877"/><qTerm  idx="-1"  idxOne="11"  idxTwo="18"  coef="1.2285"/><qTerm  idx="-1"  idxOne="12"  idxTwo="13"  coef="-1.7999"/><qTerm  idx="-1"  idxOne="12"  idxTwo="18"  coef="-1.5294"/><qTerm  idx="-1"  idxOne="13"  idxTwo="13"  coef="-.9156"/><qTerm  idx="-1"  idxOne="13"  idxTwo="14"  coef="-.4451"/><qTerm  idx="-1"  idxOne="13"  idxTwo="15"  coef="-1.6489"/><qTerm  idx="-1"  idxOne="13"  idxTwo="17"  coef=".5921"/><qTerm  idx="-1"  idxOne="14"  idxTwo="15"  coef="-.5504"/><qTerm  idx="-1"  idxOne="14"  idxTwo="16"  coef="1.7027"/><qTerm  idx="-1"  idxOne="14"  idxTwo="18"  coef=".6363"/><qTerm  idx="-1"  idxOne="17"  idxTwo="19"  coef="-.4805"/><qTerm  idx="0"  idxOne="0"  idxTwo="4"  coef="-1.3751"/><qTerm  idx="0"  idxOne="0"  idxTwo="19"  coef=".3934"/><qTerm  idx="0"  idxOne="1"  idxTwo="3"  coef="-1.731"/><qTerm  idx="0"  idxOne="1"  idxTwo="5"  coef="-5.37e-2"/><qTerm  idx="0"  idxOne="1"  idxTwo="7"  coef="-.7812"/><qTerm  idx="0"  idxOne="1"  idxTwo="8"  coef="1.0377"/><qTerm  idx="0"  idxOne="1"  idxTwo="9"  coef="-1.9254"/><qTerm  idx="0"  idxOne="1"  idxTwo="10"  coef="1.9986"/><qTerm  idx="0"  idxOne="1"  idxTwo="16"  coef="-4.22e-2"/><qTerm  idx="0"  idxOne="2"  idxTwo="6"  coef="-.8095"/><qTerm  idx="0"  idxOne="2"  idxTwo="7"  coef=".3047"/><qTerm  idx="0"  idxOne="2"  idxTwo="8"  coef="-.8947"/><qTerm  idx="0"  idxOne="2"  idxTwo="9"  coef="-.8898"/><qTerm  idx="0"  idxOne="2"  idxTwo="11"  coef="-1.7274"/><qTerm  idx="0"  idxOne="2"  idxTwo="17"  coef="-1.1779"/><qTerm  idx="0"  idxOne="2"  idxTwo="18"  coef="-.5951"/><qTerm  idx="0"  idxOne="3"  idxTwo="18"  coef="-1.5269"/><qTerm  idx="0"  idxOne="4"  idxTwo="5"  coef="-.4344"/><qTerm  idx="0"  idxOne="4"  idxTwo="9"  coef="-1.7594"/><qTerm  idx="0"  idxOne="4"  idxTwo="10"  coef=".6244"/><qTerm  idx="0"  idxOne="4"  idxTwo="11"  coef=".45"/><qTerm  idx="0"  idxOne="4"  idxTwo="18"  coef=".2356"/><qTerm  idx="0"  idxOne="5"  idxTwo="9"  coef=".6413"/><qTerm  idx="0"  idxOne="5"  idxTwo="10"  coef="1.8485"/><qTerm  idx="0"  idxOne="5"  idxTwo="11"  coef=".2159"/><qTerm  idx="0"  idxOne="5"  idxTwo="13"  coef="1.4585"/><qTerm  idx="0"  idxOne="6"  idxTwo="6"  coef="-1.8159"/><qTerm  idx="0"  idxOne="6"  idxTwo="9"  coef="-1.5598"/><qTerm  idx="0"  idxOne="6"  idxTwo="10"  coef="1.8155"/><qTerm  idx="0"  idxOne="6"  idxTwo="14"  coef="-1.2294"/><qTerm  idx="0"  idxOne="6"  idxTwo="18"  coef=".6758"/><qTerm  idx="0"  idxOne="7"  idxTwo="18"  coef="-.4374"/><qTerm  idx="0"  idxOne="8"  idxTwo="15"  coef=".5772"/><qTerm  idx="0"  idxOne="8"  idxTwo="17"  coef=".3001"/><qTerm  idx="0"  idxOne="8"  idxTwo="18"  coef=".2435"/><qTerm  idx="0"  idxOne="8"  idxTwo="19"  coef="-1.3798"/><qTerm  idx="0"  idxOne="9"  idxTwo="12"  coef="-1.8843"/><qTerm  idx="0"  idxOne="9"  idxTwo="14"  coef="1.3781"/><qTerm  idx="0"  idxOne="9"  idxTwo="16"  coef="-.5341"/><qTerm  idx="0"  idxOne="10"  idxTwo="13"  coef="-.4054"/><qTerm  idx="0"  idxOne="10"  idxTwo="18"  coef="-.4514"/><qTerm  idx="0"  idxOne="11"  idxTwo="13"  coef=".8148"/><qTerm  idx="0"  idxOne="11"  idxTwo="14"  coef="-1.0589"/><qTerm  idx="0"  idxOne="12"  idxTwo="12"  coef=".5295"/><qTerm  idx="0"  idxOne="12"  idxTwo="13"  coef="-1.0595"/><qTerm  idx="0"  idxOne="12"  idxTwo="16"  coef="-.4001"/><qTerm  idx="0"  idxOne="12"  idxTwo="18"  coef="-.6883"/><qTerm  idx="0"  idxOne="13"  idxTwo="16"  coef="1.812"/><qTerm  idx="0"  idxOne="13"  idxTwo="17"  coef=".5468"/><qTerm  idx="0"  idxOne="13"  idxTwo="18"  coef="-.7428"/><qTerm  idx="0"  idxOne="15"  idxTwo="15"  coef="-.4933"/><qTerm  idx="0"  idxOne="17"  idxTwo="19"  coef=".1322"/><qTerm  idx="1"  idxOne="0"  idxTwo="5"  coef="-.4487"/><qTerm  idx="1"  idxOne="0"  idxTwo="7"  coef="1.9627"/><qTerm  idx="1"  idxOne="0"  idxTwo="9"  coef="5.88e-2"/><qTerm  idx="1"  idxOne="0"  idxTwo="16"  coef="1.8944"/><qTerm  idx="1"  idxOne="0"  idxTwo="18"  coef="1.8035"/><qTerm  idx="1"  idxOne="1"  idxTwo="8"  coef="1.7729"/><qTerm  idx="1"  idxOne="1"  idxTwo="18"  coef=".3429"/><qTerm  idx="1"  idxOne="2"  idxTwo="8"  coef=".7028"/><qTerm  idx="1"  idxOne="2"  idxTwo="9"  coef="-1.0224"/><qTerm  idx="1"  idxOne="2"  idxTwo="13"  coef="-8.74e-2"/><qTerm  idx="1"  idxOne="2"  idxTwo="15"  coef=".849"/><qTerm  idx="1"  idxOne="2"  idxTwo="18"  coef="-.6708"/><qTerm  idx="1"  idxOne="3"  idxTwo="4"  coef="1.2855"/><qTerm  idx="1"  idxOne="3"  idxTwo="6"  coef="-.3829"/><qTerm  idx="1"  idxOne="3"  idxTwo="12"  coef="-1.6624"/><qTerm  idx="1"  idxOne="3"  idxTwo="14"  coef="-1.0809"/><qTerm  idx="1"  idxOne="4"  idxTwo="8"  coef="-1.3356"/><qTerm  idx="1"  idxOne="4"  idxTwo="12"  coef="8.61e-2"/><qTerm  idx="1"  idxOne="4"  idxTwo="13"  coef=".3532"/><qTerm  idx="1"  idxOne="5"  idxTwo="5"  coef="-1.9971"/><qTerm  idx="1"  idxOne="5"  idxTwo="6"  coef="-1.6493"/><qTerm  idx="1"  idxOne="5"  idxTwo="12"  coef="1.0648"/><qTerm  idx="1"  idxOne="5"  idxTwo="15"  coef="3.1e-3"/><qTerm  idx="1"  idxOne="6"  idxTwo="7"  coef=".6341"/><qTerm  idx="1"  idxOne="6"  idxTwo="8"  coef="-1.96"/><qTerm  idx="1"  idxOne="6"  idxTwo="10"  coef="1.4957"/><qTerm  idx="1"  idxOne="6"  idxTwo="12"  coef="1.1652"/><qTerm  idx="1"  idxOne="6"  idxTwo="13"  coef=".4115"/><qTerm  idx="1"  idxOne="6"  idxTwo="15"  coef=".3745"/><qTerm  idx="1"  idxOne="6"  idxTwo="17"  coef="1.8684"/><qTerm  idx="1"  idxOne="7"  idxTwo="7"  coef=".9589"/><qTerm  idx="1"  idxOne="7"  idxTwo="12"  coef="-1.7118"/><qTerm  idx="1"  idxOne="7"  idxTwo="13"  coef=".8082"/><qTerm  idx="1"  idxOne="8"  idxTwo="13"  coef=".3607"/><qTerm  idx="1"  idxOne="8"  idxTwo="14"  coef="-.3931"/><qTerm  idx="1"  idxOne="8"  idxTwo="19"  coef="-1.3494"/><qTerm  idx="1"  idxOne="9"  idxTwo="11"  coef="1.2126"/><qTerm  idx="1"  idxOne="9"  idxTwo="12"  coef=".8316"/><qTerm  idx="1"  idxOne="10"  idxTwo="17"  coef="1.402"/><qTerm  idx="1"  idxOne="10"  idxTwo="18"  coef="-1.3543"/><qTerm  idx="1"  idxOne="11"  idxTwo="13"  coef="1.0915"/><qTerm  idx="1"  idxOne="11"  idxTwo="17"  coef="3.82e-2"/><qTerm  idx="1"  idxOne="12"  idxTwo="12"  coef="9.62e-2"/><qTerm  idx="1"  idxOne="12"  idxTwo="13"  coef=".6547"/><qTerm  idx="1"  idxOne="12"  idxTwo="15"  coef=".7326"/><qTerm  idx="1"  idxOne="13"  idxTwo="15"  coef="-1.2282"/><qTerm  idx="1"  idxOne="13"  idxTwo="16"  coef="-1.4976"/><qTerm  idx="1"  idxOne="13"  idxTwo="17"  coef="-.1584"/><qTerm  idx="1"  idxOne="14"  idxTwo="16"  coef="1.1956"/><qTerm  idx="1"  idxOne="14"  idxTwo="18"  coef=".9008"/><qTerm  idx="1"  idxOne="15"  idxTwo="17"  coef="-5.76e-2"/><qTerm  idx="1"  idxOne="16"  idxTwo="19"  coef="-1.5911"/><qTerm  idx="2"  idxOne="0"  idxTwo="8"  coef="-.3649"/><qTerm  idx="2"  idxOne="0"  idxTwo="9"  coef=".5648"/><qTerm  idx="2"  idxOne="0"  idxTwo="17"  coef="-1.2467"/><qTerm  idx="2"  idxOne="1"  idxTwo="2"  coef="-.3782"/><qTerm  idx="2"  idxOne="1"  idxTwo="3"  coef="-.6486"/><qTerm  idx="2"  idxOne="1"  idxTwo="4"  coef="-1.4694"/><qTerm  idx="2"  idxOne="1"  idxTwo="10"  coef=".4301"/><qTerm  idx="2"  idxOne="1"  idxTwo="13"  coef="-1.4461"/><qTerm  idx="2"  idxOne="1"  idxTwo="15"  coef="-.7515"/><qTerm  idx="2"  idxOne="1"  idxTwo="17"  coef="1.1194"/><qTerm  idx="2"  idxOne="2"  idxTwo="3"  coef="5.56e-2"/><qTerm  idx="2"  idxOne="2"  idxTwo="12"  coef="-1.5802"/><qTerm  idx="2"  idxOne="2"  idxTwo="16"  coef=".2133"/><qTerm  idx="2"  idxOne="3"  idxTwo="6"  coef="-1.94e-2"/><qTerm  idx="2"  idxOne="3"  idxTwo="9"  coef=".8699"/><qTerm  idx="2"  idxOne="3"  idxTwo="18"  coef="1.4513"/><qTerm  idx="2"  idxOne="4"  idxTwo="15"  coef="-.1048"/><qTerm  idx="2"  idxOne="5"  idxTwo="5"  coef="-1.4281"/><qTerm  idx="2"  idxOne="5"  idxTwo="10"  coef="-.7476"/><qTerm  idx="2"  idxOne="5"  idxTwo="12"  coef="-6.e-2"/><qTerm  idx="2"  idxOne="5"  idxTwo="13"  coef="-.3278"/><qTerm  idx="2"  idxOne="5"  idxTwo="17"  coef="1.2638"/><qTerm  idx="2"  idxOne="5"  idxTwo="19"  coef="1.3622"/><qTerm  idx="2"  idxOne="6"  idxTwo="6"  coef=".6139"/><qTerm  idx="2"  idxOne="6"  idxTwo="9"  coef="-1.8394"/><qTerm  idx="2"  idxOne="6"  idxTwo="15"  coef="1.8902"/><qTerm  idx="2"  idxOne="6"  idxTwo="16"  coef="1.1509"/><qTerm  idx="2"  idxOne="6"  idxTwo="17"  coef="1.5019"/><qTerm  idx="2"  idxOne="7"  idxTwo="9"  coef=".6602"/><qTerm  idx="2"  idxOne="7"  idxTwo="10"  coef="1.4986"/><qTerm  idx="2"  idxOne="7"  idxTwo="12"  coef="1.6713"/><qTerm  idx="2"  idxOne="8"  idxTwo="8"  coef=".6517"/><qTerm  idx="2"  idxOne="8"  idxTwo="9"  coef="1.2686"/><qTerm  idx="2"  idxOne="8"  idxTwo="13"  coef="-1.2069"/><qTerm  idx="2"  idxOne="8"  idxTwo="16"  coef="-.3495"/><qTerm  idx="2"  idxOne="9"  idxTwo="11"  coef=".9939"/><qTerm  idx="2"  idxOne="9"  idxTwo="13"  coef=".7735"/><qTerm  idx="2"  idxOne="9"  idxTwo="15"  coef="-1.6357"/><qTerm  idx="2"  idxOne="10"  idxTwo="11"  coef="-1.2204"/><qTerm  idx="2"  idxOne="10"  idxTwo="14"  coef=".1004"/><qTerm  idx="2"  idxOne="10"  idxTwo="17"  coef=".3039"/><qTerm  idx="2"  idxOne="10"  idxTwo="19"  coef="-1.8765"/><qTerm  idx="2"  idxOne="11"  idxTwo="14"  coef="-.1587"/><qTerm  idx="2"  idxOne="11"  idxTwo="16"  coef="-.6654"/><qTerm  idx="2"  idxOne="11"  idxTwo="18"  coef="-.4277"/><qTerm  idx="2"  idxOne="13"  idxTwo="16"  coef="-.5914"/><qTerm  idx="2"  idxOne="13"  idxTwo="18"  coef="1.5728"/><qTerm  idx="2"  idxOne="14"  idxTwo="14"  coef=".8012"/><qTerm  idx="2"  idxOne="14"  idxTwo="15"  coef=".6997"/><qTerm  idx="2"  idxOne="14"  idxTwo="16"  coef="-.4307"/><qTerm  idx="2"  idxOne="15"  idxTwo="17"  coef="-8.42e-2"/><qTerm  idx="2"  idxOne="19"  idxTwo="19"  coef="-1.4689"/><qTerm  idx="3"  idxOne="0"  idxTwo="15"  coef="1.885"/><qTerm  idx="3"  idxOne="0"  idxTwo="17"  coef="-1.2491"/><qTerm  idx="3"  idxOne="1"  idxTwo="1"  coef="-1.1598"/><qTerm  idx="3"  idxOne="1"  idxTwo="4"  coef="1.2781"/><qTerm  idx="3"  idxOne="1"  idxTwo="5"  coef="1.6475"/><qTerm  idx="3"  idxOne="1"  idxTwo="9"  coef="-.129"/><qTerm  idx="3"  idxOne="1"  idxTwo="11"  coef=".9673"/><qTerm  idx="3"  idxOne="1"  idxTwo="12"  coef="-.8164"/><qTerm  idx="3"  idxOne="1"  idxTwo="17"  coef="-.3228"/><qTerm  idx="3"  idxOne="1"  idxTwo="18"  coef=".6846"/><qTerm  idx="3"  idxOne="2"  idxTwo="2"  coef="-.6125"/><qTerm  idx="3"  idxOne="2"  idxTwo="5"  coef="3.7e-2"/><qTerm  idx="3"  idxOne="2"  idxTwo="9"  coef=".6215"/><qTerm  idx="3"  idxOne="2"  idxTwo="10"  coef="1.9682"/><qTerm  idx="3"  idxOne="2"  idxTwo="14"  coef=".7889"/><qTerm  idx="3"  idxOne="2"  idxTwo="16"  coef="-1.0782"/><qTerm  idx="3"  idxOne="2"  idxTwo="17"  coef="1.5146"/><qTerm  idx="3"  idxOne="3"  idxTwo="3"  coef="1.006"/><qTerm  idx="3"  idxOne="3"  idxTwo="4"  coef="-1.3329"/><qTerm  idx="3"  idxOne="3"  idxTwo="5"  coef="-1.1124"/><qTerm  idx="3"  idxOne="3"  idxTwo="6"  coef=".7719"/><qTerm  idx="3"  idxOne="3"  idxTwo="8"  coef="-1.3116"/><qTerm  idx="3"  idxOne="3"  idxTwo="12"  coef=".3132"/><qTerm  idx="3"  idxOne="4"  idxTwo="12"  coef=".2273"/><qTerm  idx="3"  idxOne="4"  idxTwo="15"  coef="1.6079"/><qTerm  idx="3"  idxOne="4"  idxTwo="16"  coef="-1.1152"/><qTerm  idx="3"  idxOne="4"  idxTwo="18"  coef="-4.28e-2"/><qTerm  idx="3"  idxOne="5"  idxTwo="7"  coef=".1897"/><qTerm  idx="3"  idxOne="6"  idxTwo="7"  coef="-.3318"/><qTerm  idx="3"  idxOne="6"  idxTwo="11"  coef="-1.2113"/><qTerm  idx="3"  idxOne="6"  idxTwo="14"  coef="1.0801"/><qTerm  idx="3"  idxOne="6"  idxTwo="19"  coef="-3.28e-2"/><qTerm  idx="3"  idxOne="7"  idxTwo="9"  coef="-1.2027"/><qTerm  idx="3"  idxOne="7"  idxTwo="10"  coef="1.1558"/><qTerm  idx="3"  idxOne="7"  idxTwo="12"  coef="-1.6843"/><qTerm  idx="3"  idxOne="7"  idxTwo="13"  coef=".1959"/><qTerm  idx="3"  idxOne="7"  idxTwo="16"  coef=".9721"/><qTerm  idx="3"  idxOne="7"  idxTwo="17"  coef=".3592"/><qTerm  idx="3"  idxOne="7"  idxTwo="19"  coef="1.5679"/><qTerm  idx="3"  idxOne="9"  idxTwo="13"  coef="1.5793"/><qTerm  idx="3"  idxOne="9"  idxTwo="14"  coef="1.2831"/><qTerm  idx="3"  idxOne="11"  idxTwo="11"  coef=".7543"/><qTerm  idx="3"  idxOne="11"  idxTwo="12"  coef="-.11"/><qTerm  idx="3"  idxOne="11"  idxTwo="13"  coef=".4229"/><qTerm  idx="3"  idxOne="11"  idxTwo="14"  coef="-.3904"/><qTerm  idx="3"  idxOne="12"  idxTwo="13"  coef="-.4724"/><qTerm  idx="3"  idxOne="12"  idxTwo="14"  coef="-.8072"/><qTerm  idx="3"  idxOne="12"  idxTwo="15"  coef="-1.3272"/><qTerm  idx="3"  idxOne="13"  idxTwo="17"  coef="-.9752"/><qTerm  idx="3"  idxOne="14"  idxTwo="18"  coef="1.8476"/><qTerm  idx="3"  idxOne="15"  idxTwo="17"  coef=".7728"/><qTerm  idx="3"  idxOne="16"  idxTwo="19"  coef="-.5208"/></quadraticCoefficients></instanceData></osil>
